ilp_joint_2/output/evolution_ilp.lp
Maximize
  0.00240934025073669 Z_95_1_0 + 0.00520870481146546 Z_95_1_1
   + 0.3969138751735625 Z_95_1_2 + 0.00506452489111182 Z_95_1_3
Subject To
 constraint1_951: Z_95_1_0 + Z_95_1_1 + Z_95_1_2 + Z_95_1_3 <= 1
 constraint2_950: Z_95_1_0 <= 1
 constraint2_951: Z_95_1_1 <= 1
 constraint2_952: Z_95_1_2 <= 1
 constraint2_953: Z_95_1_3 <= 1
Bounds
Binaries
 Z_95_1_0 Z_95_1_1 Z_95_1_2 Z_95_1_3
End
