ilp_joint_2/output/evolution_ilp.mps
NAME evolution_srl_ilp
* Max problem is converted into Min one
ROWS
 N  OBJ
 L  constraint1_951
 L  constraint2_950
 L  constraint2_951
 L  constraint2_952
 L  constraint2_953
COLUMNS
    MARKER    'MARKER'                 'INTORG'
    Z_95_1_0  OBJ       -2.4093402507366912e-03
    Z_95_1_0  constraint1_951  1
    Z_95_1_0  constraint2_950  1
    Z_95_1_1  OBJ       -5.2087048114654588e-03
    Z_95_1_1  constraint1_951  1
    Z_95_1_1  constraint2_951  1
    Z_95_1_2  OBJ       -3.9691387517356247e-01
    Z_95_1_2  constraint1_951  1
    Z_95_1_2  constraint2_952  1
    Z_95_1_3  OBJ       -5.0645248911118180e-03
    Z_95_1_3  constraint1_951  1
    Z_95_1_3  constraint2_953  1
    MARKER    'MARKER'                 'INTEND'
RHS
    RHS1      constraint1_951  1
    RHS1      constraint2_950  1
    RHS1      constraint2_951  1
    RHS1      constraint2_952  1
    RHS1      constraint2_953  1
BOUNDS
 UP BND1      Z_95_1_0  1
 UP BND1      Z_95_1_1  1
 UP BND1      Z_95_1_2  1
 UP BND1      Z_95_1_3  1
ENDATA
