ilp_joint_2/output/evolution_ilp.sol
# Solution for model evolution_srl_ilp
# Objective value = 3.9691387517356247e-01
Z_95_1_0 0
Z_95_1_1 0
Z_95_1_2 1
Z_95_1_3 0
